;; sequence(s): A105349
;; terms: 1 1 1 0 0 1 0 0 0 0 0 0 1 0 0 0 0 0 0 0
;; small program: 1 div loop(loop(y, x - y, x), x, 1 + ((x * x) div (2 + 2)))
;; fast program: (((((loop((loop((((2 + y) * y) div (x + y)) + y, x, 1) - 1) + x, 2, x) + x) mod 2) + x) + 1) + x) mod 2
(set-logic UFNIA)
(define-fun divf ((a Int) (b Int)) Int (ite (< 0 b) (div a b) (div (- a) (- b))))
(define-fun modf ((a Int) (b Int)) Int (ite (< 0 b) (mod a b) (- (mod (- a) (- b)))))
(declare-fun f1 (Int Int) Int)
(declare-fun g1 (Int Int) Int)
(declare-fun h1 (Int) Int)
(declare-fun u1 (Int Int) Int)
(declare-fun v1 (Int Int) Int)
(declare-fun f0 (Int Int) Int)
(declare-fun g0 (Int) Int)
(declare-fun h0 (Int) Int)
(declare-fun u0 (Int Int) Int)
(declare-fun v0 (Int) Int)
(declare-fun small (Int) Int)
(declare-fun f3 (Int Int) Int)
(declare-fun g3 (Int) Int)
(declare-fun h3 () Int)
(declare-fun u3 (Int Int) Int)
(declare-fun v3 (Int) Int)
(declare-fun f2 (Int) Int)
(declare-fun g2 () Int)
(declare-fun h2 (Int) Int)
(declare-fun u2 (Int Int) Int)
(declare-fun v2 (Int) Int)
(declare-fun fast (Int) Int)
(assert (forall ((x Int) (y Int)) (= (f1 x y) y)))
(assert (forall ((x Int) (y Int)) (= (g1 x y) (- x y))))
(assert (forall ((x Int)) (= (h1 x) x)))
(assert (forall ((x Int) (y Int)) (= (u1 x y) (ite (<= x 0) y (f1 (u1 (- x 1) y) x)))))
(assert (forall ((x Int) (y Int)) (= (v1 x y) (u1 (g1 x y) (h1 x)))))
(assert (forall ((x Int) (y Int)) (= (f0 x y) (v1 x y))))
(assert (forall ((x Int)) (= (g0 x) x)))
(assert (forall ((x Int)) (= (h0 x) (+ 1 (divf (* x x) (+ 2 2))))))
(assert (forall ((x Int) (y Int)) (= (u0 x y) (ite (<= x 0) y (f0 (u0 (- x 1) y) x)))))
(assert (forall ((x Int)) (= (v0 x) (u0 (g0 x) (h0 x)))))
(assert (forall ((x Int)) (= (small x) (divf 1 (v0 x)))))
(assert (forall ((x Int) (y Int)) (= (f3 x y) (+ (divf (* (+ 2 y) y) (+ x y)) y))))
(assert (forall ((x Int)) (= (g3 x) x)))
(assert (= h3 1))
(assert (forall ((x Int) (y Int)) (= (u3 x y) (ite (<= x 0) y (f3 (u3 (- x 1) y) x)))))
(assert (forall ((x Int)) (= (v3 x) (u3 (g3 x) h3))))
(assert (forall ((x Int)) (= (f2 x) (+ (- (v3 x) 1) x))))
(assert (= g2 2))
(assert (forall ((x Int)) (= (h2 x) x)))
(assert (forall ((x Int) (y Int)) (= (u2 x y) (ite (<= x 0) y (f2 (u2 (- x 1) y))))))
(assert (forall ((x Int)) (= (v2 x) (u2 g2 (h2 x)))))
(assert (forall ((x Int)) (= (fast x) (modf (+ (+ (+ (modf (+ (v2 x) x) 2) x) 1) x) 2))))
(assert (exists ((c Int)) (and (>= c 0) (not (= (small c) (fast c))))))
(check-sat)
